[VALIDATOR STDOUT]
Checking plan: /home/fjl2401/Safety-gen/benchmark_problems/blocksworld/optic_results/bw_ops3_n10_seed10001.plan
Plan executed successfully - checking goal
Goal not satisfied
Plan invalid


Failed plans:
 /home/fjl2401/Safety-gen/benchmark_problems/blocksworld/optic_results/bw_ops3_n10_seed10001.plan
